db/data/1887627739319063030929240176052821527758.z3.out
sat
-------------------
2321.175356009
